125
750
100 125
100 99
100 96
100 95
100 80
100 75
99 124
99 100
99 98
99 94
99 79
99 74
98 123
98 99
98 97
98 93
98 78
98 73
97 122
97 98
97 96
97 92
97 77
97 72
96 121
96 100
96 97
96 91
96 76
96 71
95 120
95 100
95 94
95 91
95 90
95 70
94 119
94 99
94 95
94 93
94 89
94 69
93 118
93 98
93 94
93 92
93 88
93 68
92 117
92 97
92 93
92 91
92 87
92 67
91 116
91 96
91 95
91 92
91 86
91 66
90 115
90 95
90 89
90 86
90 85
90 65
89 114
89 94
89 90
89 88
89 84
89 64
88 113
88 93
88 89
88 87
88 83
88 63
87 112
87 92
87 88
87 86
87 82
87 62
86 111
86 91
86 90
86 87
86 81
86 61
85 110
85 90
85 84
85 81
85 80
85 60
84 109
84 89
84 85
84 83
84 79
84 59
83 108
83 88
83 84
83 82
83 78
83 58
82 107
82 87
82 83
82 81
82 77
82 57
81 106
81 86
81 85
81 82
81 76
81 56
80 105
80 100
80 85
80 79
80 76
80 55
79 104
79 99
79 84
79 80
79 78
79 54
78 103
78 98
78 83
78 79
78 77
78 53
77 102
77 97
77 82
77 78
77 76
77 52
76 101
76 96
76 81
76 80
76 77
76 51
75 100
75 74
75 71
75 70
75 55
75 50
74 99
74 75
74 73
74 69
74 54
74 49
73 98
73 74
73 72
73 68
73 53
73 48
72 97
72 73
72 71
72 67
72 52
72 47
112 117
112 113
112 111
112 107
112 87
112 12
15 115
15 40
15 20
15 14
15 11
15 10
37 62
37 42
37 38
37 36
37 32
37 12
17 117
17 42
17 22
17 18
17 16
17 12
114 119
114 115
114 113
114 109
114 89
114 14
111 116
111 115
111 112
111 106
111 86
111 11
14 114
14 39
14 19
14 15
14 13
14 9
36 61
36 41
36 40
36 37
36 31
36 11
16 116
16 41
16 21
16 20
16 17
16 11
113 118
113 114
113 112
113 108
113 88
113 13
110 115
110 109
110 106
110 105
110 85
110 10
13 113
13 38
13 18
13 14
13 12
13 8
35 60
35 40
35 34
35 31
35 30
35 10
109 114
109 110
109 108
109 104
109 84
109 9
12 112
12 37
12 17
12 13
12 11
12 7
34 59
34 39
34 35
34 33
34 29
34 9
108 113
108 109
108 107
108 103
108 83
108 8
11 111
11 36
11 16
11 15
11 12
11 6
33 58
33 38
33 34
33 32
33 28
33 8
107 112
107 108
107 106
107 102
107 82
107 7
10 110
10 35
10 15
10 9
10 6
10 5
32 57
32 37
32 33
32 31
32 27
32 7
106 111
106 110
106 107
106 101
106 81
106 6
9 109
9 34
9 14
9 10
9 8
9 4
31 56
31 36
31 35
31 32
31 26
31 6
105 125
105 110
105 104
105 101
105 80
105 5
8 108
8 33
8 13
8 9
8 7
8 3
30 55
30 50
30 35
30 29
30 26
30 5
25 125
25 50
25 24
25 21
25 20
25 5
122 123
122 121
122 117
122 102
122 97
122 22
22 122
22 47
22 23
22 21
22 17
22 2
119 124
119 120
119 118
119 114
119 94
119 19
3 103
3 28
3 23
3 8
3 4
3 2
26 51
26 46
26 31
26 30
26 27
26 1
123 124
123 122
123 118
123 103
123 98
123 23
21 121
21 46
21 25
21 22
21 16
21 1
118 123
118 119
118 117
118 113
118 93
118 18
6 106
6 31
6 11
6 10
6 7
6 1
103 123
103 108
103 104
103 102
103 78
103 3
29 54
29 49
29 34
29 30
29 28
29 4
5 105
5 30
5 25
5 10
5 4
5 1
102 122
102 107
102 103
102 101
102 77
102 2
28 53
28 48
28 33
28 29
28 27
28 3
125 124
125 121
125 120
125 105
125 100
125 25
7 107
7 32
7 12
7 8
7 6
7 2
104 124
104 109
104 105
104 103
104 79
104 4
101 121
101 106
101 105
101 102
101 76
101 1
4 104
4 29
4 24
4 9
4 5
4 3
2 102
2 27
2 22
2 7
2 3
2 1
1 101
1 26
1 21
1 6
1 5
1 2
24 124
24 49
24 25
24 23
24 19
24 4
121 125
121 122
121 116
121 101
121 96
121 21
27 52
27 47
27 32
27 28
27 26
27 2
124 125
124 123
124 119
124 104
124 99
124 24
23 123
23 48
23 24
23 22
23 18
23 3
120 125
120 119
120 116
120 115
120 95
120 20
18 118
18 43
18 23
18 19
18 17
18 13
115 120
115 114
115 111
115 110
115 90
115 15
38 63
38 43
38 39
38 37
38 33
38 13
19 119
19 44
19 24
19 20
19 18
19 14
116 121
116 120
116 117
116 111
116 91
116 16
39 64
39 44
39 40
39 38
39 34
39 14
20 120
20 45
20 25
20 19
20 16
20 15
117 122
117 118
117 116
117 112
117 92
117 17
40 65
40 45
40 39
40 36
40 35
40 15
41 66
41 46
41 45
41 42
41 36
41 16
42 67
42 47
42 43
42 41
42 37
42 17
43 68
43 48
43 44
43 42
43 38
43 18
44 69
44 49
44 45
44 43
44 39
44 19
45 70
45 50
45 44
45 41
45 40
45 20
46 71
46 50
46 47
46 41
46 26
46 21
47 72
47 48
47 46
47 42
47 27
47 22
48 73
48 49
48 47
48 43
48 28
48 23
49 74
49 50
49 48
49 44
49 29
49 24
50 75
50 49
50 46
50 45
50 30
50 25
51 76
51 71
51 56
51 55
51 52
51 26
52 77
52 72
52 57
52 53
52 51
52 27
53 78
53 73
53 58
53 54
53 52
53 28
54 79
54 74
54 59
54 55
54 53
54 29
55 80
55 75
55 60
55 54
55 51
55 30
56 81
56 61
56 60
56 57
56 51
56 31
57 82
57 62
57 58
57 56
57 52
57 32
58 83
58 63
58 59
58 57
58 53
58 33
59 84
59 64
59 60
59 58
59 54
59 34
60 85
60 65
60 59
60 56
60 55
60 35
61 86
61 66
61 65
61 62
61 56
61 36
62 87
62 67
62 63
62 61
62 57
62 37
63 88
63 68
63 64
63 62
63 58
63 38
64 89
64 69
64 65
64 63
64 59
64 39
65 90
65 70
65 64
65 61
65 60
65 40
66 91
66 71
66 70
66 67
66 61
66 41
67 92
67 72
67 68
67 66
67 62
67 42
68 93
68 73
68 69
68 67
68 63
68 43
69 94
69 74
69 70
69 68
69 64
69 44
70 95
70 75
70 69
70 66
70 65
70 45
71 96
71 75
71 72
71 66
71 51
71 46
